Minimize
xobj


Subject To
x0_r1 + x1_r1 + x2_r1 + x3_r1 + x4_r1 + x5_r1 + x6_r1 + x7_r1 + x8_r1 + x9_r1 + x10_r1 + x11_r1 + x12_r1 + x13_r1 + x14_r1 + x15_r1 + x16_r1 + x17_r1 + x18_r1 + x19_r1 + x20_r1 + x21_r1 + x22_r1 + x23_r1 + x24_r1 + x25_r1 + x26_r1 + x27_r1 + x28_r1 + x29_r1 + x30_r1 + x31_r1 + x32_r1 + x33_r1 + x34_r1 + x35_r1 + x36_r1 + x37_r1 + x38_r1 + x39_r1 + x40_r1 + x41_r1 + x42_r1 + x43_r1 + x44_r1 + x45_r1 + x46_r1 + x47_r1 + x48_r1 + x49_r1 + x50_r1 + x51_r1 + x52_r1 + x53_r1 + x54_r1 + x55_r1 + x56_r1 + x57_r1 + x58_r1 + x59_r1 + x60_r1 + x61_r1 + x62_r1 + x63_r1 >= 1
SL0_r1 + 2 SH0_r1 + SL1_r1 + 2 SH1_r1 + SL2_r1 + 2 SH2_r1 + SL3_r1 + 2 SH3_r1 + SL4_r1 + 2 SH4_r1 + SL5_r1 + 2 SH5_r1 + SL6_r1 + 2 SH6_r1 + SL7_r1 + 2 SH7_r1 + SL8_r1 + 2 SH8_r1 + SL9_r1 + 2 SH9_r1 + SL10_r1 + 2 SH10_r1 + SL11_r1 + 2 SH11_r1 + SL12_r1 + 2 SH12_r1 + SL13_r1 + 2 SH13_r1 + SL14_r1 + 2 SH14_r1 + SL15_r1 + 2 SH15_r1 - xobj = 0
-1 x0_r1 - 8 x1_r1 + 7 x2_r1 - 3 x3_r1 - 2 y0_r1 + 4 y1_r1 - 2 y2_r1 - 11 y3_r1 + 16 SH0_r1 >= 0
-3 x0_r1 - 1 x1_r1 - 2 x2_r1 + 3 x3_r1 + 4 y0_r1 - 2 y1_r1 - 6 y2_r1 + 0 y3_r1 + 7 SH0_r1 >= 0
3 x0_r1 + 1 x1_r1 + 1 x2_r1 + 2 x3_r1 + 2 y0_r1 + 3 y1_r1 + 5 y2_r1 + 4 y3_r1 - 8 SH0_r1 >= 0
-1 x0_r1 - 2 x1_r1 - 2 x2_r1 + 1 x3_r1 - 4 y0_r1 - 1 y1_r1 + 5 y2_r1 - 2 y3_r1 + 6 SH0_r1 >= 0
0 x0_r1 + 3 x1_r1 - 2 x2_r1 - 1 x3_r1 - 1 y0_r1 - 1 y1_r1 - 1 y2_r1 - 2 y3_r1 + 5 SH0_r1 >= 0
1 x0_r1 - 3 x1_r1 + 3 x2_r1 + 1 x3_r1 + 2 y0_r1 - 5 y1_r1 - 4 y2_r1 + 3 y3_r1 + 5 SH0_r1 >= 0
0 x0_r1 + 2 x1_r1 - 1 x2_r1 + 1 x3_r1 + 4 y0_r1 + 3 y1_r1 + 1 y2_r1 + 2 y3_r1 - 4 SH0_r1 >= 0
0 x0_r1 + 1 x1_r1 + 2 x2_r1 + 0 x3_r1 - 1 y0_r1 + 1 y1_r1 + 1 y2_r1 + 2 y3_r1 - 1 SH0_r1 >= 0
3 x0_r1 - 1 x1_r1 - 4 x2_r1 + 0 x3_r1 - 1 y0_r1 - 1 y1_r1 + 2 y2_r1 + 2 y3_r1 + 3 SH0_r1 >= 0
0 x0_r1 + 2 x1_r1 + 2 x2_r1 + 1 x3_r1 + 1 y0_r1 + 0 y1_r1 + 1 y2_r1 - 1 y3_r1 - 1 SH0_r1 >= 0
-1 x0_r1 - 1 x1_r1 - 3 x2_r1 + 0 x3_r1 + 2 y0_r1 + 1 y1_r1 - 3 y2_r1 + 0 y3_r1 + 5 SH0_r1 >= 0
SL0_r1 = 0
-1 x4_r1 - 8 x5_r1 + 7 x6_r1 - 3 x7_r1 - 2 y4_r1 + 4 y5_r1 - 2 y6_r1 - 11 y7_r1 + 16 SH1_r1 >= 0
-3 x4_r1 - 1 x5_r1 - 2 x6_r1 + 3 x7_r1 + 4 y4_r1 - 2 y5_r1 - 6 y6_r1 + 0 y7_r1 + 7 SH1_r1 >= 0
3 x4_r1 + 1 x5_r1 + 1 x6_r1 + 2 x7_r1 + 2 y4_r1 + 3 y5_r1 + 5 y6_r1 + 4 y7_r1 - 8 SH1_r1 >= 0
-1 x4_r1 - 2 x5_r1 - 2 x6_r1 + 1 x7_r1 - 4 y4_r1 - 1 y5_r1 + 5 y6_r1 - 2 y7_r1 + 6 SH1_r1 >= 0
0 x4_r1 + 3 x5_r1 - 2 x6_r1 - 1 x7_r1 - 1 y4_r1 - 1 y5_r1 - 1 y6_r1 - 2 y7_r1 + 5 SH1_r1 >= 0
1 x4_r1 - 3 x5_r1 + 3 x6_r1 + 1 x7_r1 + 2 y4_r1 - 5 y5_r1 - 4 y6_r1 + 3 y7_r1 + 5 SH1_r1 >= 0
0 x4_r1 + 2 x5_r1 - 1 x6_r1 + 1 x7_r1 + 4 y4_r1 + 3 y5_r1 + 1 y6_r1 + 2 y7_r1 - 4 SH1_r1 >= 0
0 x4_r1 + 1 x5_r1 + 2 x6_r1 + 0 x7_r1 - 1 y4_r1 + 1 y5_r1 + 1 y6_r1 + 2 y7_r1 - 1 SH1_r1 >= 0
3 x4_r1 - 1 x5_r1 - 4 x6_r1 + 0 x7_r1 - 1 y4_r1 - 1 y5_r1 + 2 y6_r1 + 2 y7_r1 + 3 SH1_r1 >= 0
0 x4_r1 + 2 x5_r1 + 2 x6_r1 + 1 x7_r1 + 1 y4_r1 + 0 y5_r1 + 1 y6_r1 - 1 y7_r1 - 1 SH1_r1 >= 0
-1 x4_r1 - 1 x5_r1 - 3 x6_r1 + 0 x7_r1 + 2 y4_r1 + 1 y5_r1 - 3 y6_r1 + 0 y7_r1 + 5 SH1_r1 >= 0
SL1_r1 = 0
-1 x8_r1 - 8 x9_r1 + 7 x10_r1 - 3 x11_r1 - 2 y8_r1 + 4 y9_r1 - 2 y10_r1 - 11 y11_r1 + 16 SH2_r1 >= 0
-3 x8_r1 - 1 x9_r1 - 2 x10_r1 + 3 x11_r1 + 4 y8_r1 - 2 y9_r1 - 6 y10_r1 + 0 y11_r1 + 7 SH2_r1 >= 0
3 x8_r1 + 1 x9_r1 + 1 x10_r1 + 2 x11_r1 + 2 y8_r1 + 3 y9_r1 + 5 y10_r1 + 4 y11_r1 - 8 SH2_r1 >= 0
-1 x8_r1 - 2 x9_r1 - 2 x10_r1 + 1 x11_r1 - 4 y8_r1 - 1 y9_r1 + 5 y10_r1 - 2 y11_r1 + 6 SH2_r1 >= 0
0 x8_r1 + 3 x9_r1 - 2 x10_r1 - 1 x11_r1 - 1 y8_r1 - 1 y9_r1 - 1 y10_r1 - 2 y11_r1 + 5 SH2_r1 >= 0
1 x8_r1 - 3 x9_r1 + 3 x10_r1 + 1 x11_r1 + 2 y8_r1 - 5 y9_r1 - 4 y10_r1 + 3 y11_r1 + 5 SH2_r1 >= 0
0 x8_r1 + 2 x9_r1 - 1 x10_r1 + 1 x11_r1 + 4 y8_r1 + 3 y9_r1 + 1 y10_r1 + 2 y11_r1 - 4 SH2_r1 >= 0
0 x8_r1 + 1 x9_r1 + 2 x10_r1 + 0 x11_r1 - 1 y8_r1 + 1 y9_r1 + 1 y10_r1 + 2 y11_r1 - 1 SH2_r1 >= 0
3 x8_r1 - 1 x9_r1 - 4 x10_r1 + 0 x11_r1 - 1 y8_r1 - 1 y9_r1 + 2 y10_r1 + 2 y11_r1 + 3 SH2_r1 >= 0
0 x8_r1 + 2 x9_r1 + 2 x10_r1 + 1 x11_r1 + 1 y8_r1 + 0 y9_r1 + 1 y10_r1 - 1 y11_r1 - 1 SH2_r1 >= 0
-1 x8_r1 - 1 x9_r1 - 3 x10_r1 + 0 x11_r1 + 2 y8_r1 + 1 y9_r1 - 3 y10_r1 + 0 y11_r1 + 5 SH2_r1 >= 0
SL2_r1 = 0
-1 x12_r1 - 8 x13_r1 + 7 x14_r1 - 3 x15_r1 - 2 y12_r1 + 4 y13_r1 - 2 y14_r1 - 11 y15_r1 + 16 SH3_r1 >= 0
-3 x12_r1 - 1 x13_r1 - 2 x14_r1 + 3 x15_r1 + 4 y12_r1 - 2 y13_r1 - 6 y14_r1 + 0 y15_r1 + 7 SH3_r1 >= 0
3 x12_r1 + 1 x13_r1 + 1 x14_r1 + 2 x15_r1 + 2 y12_r1 + 3 y13_r1 + 5 y14_r1 + 4 y15_r1 - 8 SH3_r1 >= 0
-1 x12_r1 - 2 x13_r1 - 2 x14_r1 + 1 x15_r1 - 4 y12_r1 - 1 y13_r1 + 5 y14_r1 - 2 y15_r1 + 6 SH3_r1 >= 0
0 x12_r1 + 3 x13_r1 - 2 x14_r1 - 1 x15_r1 - 1 y12_r1 - 1 y13_r1 - 1 y14_r1 - 2 y15_r1 + 5 SH3_r1 >= 0
1 x12_r1 - 3 x13_r1 + 3 x14_r1 + 1 x15_r1 + 2 y12_r1 - 5 y13_r1 - 4 y14_r1 + 3 y15_r1 + 5 SH3_r1 >= 0
0 x12_r1 + 2 x13_r1 - 1 x14_r1 + 1 x15_r1 + 4 y12_r1 + 3 y13_r1 + 1 y14_r1 + 2 y15_r1 - 4 SH3_r1 >= 0
0 x12_r1 + 1 x13_r1 + 2 x14_r1 + 0 x15_r1 - 1 y12_r1 + 1 y13_r1 + 1 y14_r1 + 2 y15_r1 - 1 SH3_r1 >= 0
3 x12_r1 - 1 x13_r1 - 4 x14_r1 + 0 x15_r1 - 1 y12_r1 - 1 y13_r1 + 2 y14_r1 + 2 y15_r1 + 3 SH3_r1 >= 0
0 x12_r1 + 2 x13_r1 + 2 x14_r1 + 1 x15_r1 + 1 y12_r1 + 0 y13_r1 + 1 y14_r1 - 1 y15_r1 - 1 SH3_r1 >= 0
-1 x12_r1 - 1 x13_r1 - 3 x14_r1 + 0 x15_r1 + 2 y12_r1 + 1 y13_r1 - 3 y14_r1 + 0 y15_r1 + 5 SH3_r1 >= 0
SL3_r1 = 0
-1 x16_r1 - 8 x17_r1 + 7 x18_r1 - 3 x19_r1 - 2 y16_r1 + 4 y17_r1 - 2 y18_r1 - 11 y19_r1 + 16 SH4_r1 >= 0
-3 x16_r1 - 1 x17_r1 - 2 x18_r1 + 3 x19_r1 + 4 y16_r1 - 2 y17_r1 - 6 y18_r1 + 0 y19_r1 + 7 SH4_r1 >= 0
3 x16_r1 + 1 x17_r1 + 1 x18_r1 + 2 x19_r1 + 2 y16_r1 + 3 y17_r1 + 5 y18_r1 + 4 y19_r1 - 8 SH4_r1 >= 0
-1 x16_r1 - 2 x17_r1 - 2 x18_r1 + 1 x19_r1 - 4 y16_r1 - 1 y17_r1 + 5 y18_r1 - 2 y19_r1 + 6 SH4_r1 >= 0
0 x16_r1 + 3 x17_r1 - 2 x18_r1 - 1 x19_r1 - 1 y16_r1 - 1 y17_r1 - 1 y18_r1 - 2 y19_r1 + 5 SH4_r1 >= 0
1 x16_r1 - 3 x17_r1 + 3 x18_r1 + 1 x19_r1 + 2 y16_r1 - 5 y17_r1 - 4 y18_r1 + 3 y19_r1 + 5 SH4_r1 >= 0
0 x16_r1 + 2 x17_r1 - 1 x18_r1 + 1 x19_r1 + 4 y16_r1 + 3 y17_r1 + 1 y18_r1 + 2 y19_r1 - 4 SH4_r1 >= 0
0 x16_r1 + 1 x17_r1 + 2 x18_r1 + 0 x19_r1 - 1 y16_r1 + 1 y17_r1 + 1 y18_r1 + 2 y19_r1 - 1 SH4_r1 >= 0
3 x16_r1 - 1 x17_r1 - 4 x18_r1 + 0 x19_r1 - 1 y16_r1 - 1 y17_r1 + 2 y18_r1 + 2 y19_r1 + 3 SH4_r1 >= 0
0 x16_r1 + 2 x17_r1 + 2 x18_r1 + 1 x19_r1 + 1 y16_r1 + 0 y17_r1 + 1 y18_r1 - 1 y19_r1 - 1 SH4_r1 >= 0
-1 x16_r1 - 1 x17_r1 - 3 x18_r1 + 0 x19_r1 + 2 y16_r1 + 1 y17_r1 - 3 y18_r1 + 0 y19_r1 + 5 SH4_r1 >= 0
SL4_r1 = 0
-1 x20_r1 - 8 x21_r1 + 7 x22_r1 - 3 x23_r1 - 2 y20_r1 + 4 y21_r1 - 2 y22_r1 - 11 y23_r1 + 16 SH5_r1 >= 0
-3 x20_r1 - 1 x21_r1 - 2 x22_r1 + 3 x23_r1 + 4 y20_r1 - 2 y21_r1 - 6 y22_r1 + 0 y23_r1 + 7 SH5_r1 >= 0
3 x20_r1 + 1 x21_r1 + 1 x22_r1 + 2 x23_r1 + 2 y20_r1 + 3 y21_r1 + 5 y22_r1 + 4 y23_r1 - 8 SH5_r1 >= 0
-1 x20_r1 - 2 x21_r1 - 2 x22_r1 + 1 x23_r1 - 4 y20_r1 - 1 y21_r1 + 5 y22_r1 - 2 y23_r1 + 6 SH5_r1 >= 0
0 x20_r1 + 3 x21_r1 - 2 x22_r1 - 1 x23_r1 - 1 y20_r1 - 1 y21_r1 - 1 y22_r1 - 2 y23_r1 + 5 SH5_r1 >= 0
1 x20_r1 - 3 x21_r1 + 3 x22_r1 + 1 x23_r1 + 2 y20_r1 - 5 y21_r1 - 4 y22_r1 + 3 y23_r1 + 5 SH5_r1 >= 0
0 x20_r1 + 2 x21_r1 - 1 x22_r1 + 1 x23_r1 + 4 y20_r1 + 3 y21_r1 + 1 y22_r1 + 2 y23_r1 - 4 SH5_r1 >= 0
0 x20_r1 + 1 x21_r1 + 2 x22_r1 + 0 x23_r1 - 1 y20_r1 + 1 y21_r1 + 1 y22_r1 + 2 y23_r1 - 1 SH5_r1 >= 0
3 x20_r1 - 1 x21_r1 - 4 x22_r1 + 0 x23_r1 - 1 y20_r1 - 1 y21_r1 + 2 y22_r1 + 2 y23_r1 + 3 SH5_r1 >= 0
0 x20_r1 + 2 x21_r1 + 2 x22_r1 + 1 x23_r1 + 1 y20_r1 + 0 y21_r1 + 1 y22_r1 - 1 y23_r1 - 1 SH5_r1 >= 0
-1 x20_r1 - 1 x21_r1 - 3 x22_r1 + 0 x23_r1 + 2 y20_r1 + 1 y21_r1 - 3 y22_r1 + 0 y23_r1 + 5 SH5_r1 >= 0
SL5_r1 = 0
-1 x24_r1 - 8 x25_r1 + 7 x26_r1 - 3 x27_r1 - 2 y24_r1 + 4 y25_r1 - 2 y26_r1 - 11 y27_r1 + 16 SH6_r1 >= 0
-3 x24_r1 - 1 x25_r1 - 2 x26_r1 + 3 x27_r1 + 4 y24_r1 - 2 y25_r1 - 6 y26_r1 + 0 y27_r1 + 7 SH6_r1 >= 0
3 x24_r1 + 1 x25_r1 + 1 x26_r1 + 2 x27_r1 + 2 y24_r1 + 3 y25_r1 + 5 y26_r1 + 4 y27_r1 - 8 SH6_r1 >= 0
-1 x24_r1 - 2 x25_r1 - 2 x26_r1 + 1 x27_r1 - 4 y24_r1 - 1 y25_r1 + 5 y26_r1 - 2 y27_r1 + 6 SH6_r1 >= 0
0 x24_r1 + 3 x25_r1 - 2 x26_r1 - 1 x27_r1 - 1 y24_r1 - 1 y25_r1 - 1 y26_r1 - 2 y27_r1 + 5 SH6_r1 >= 0
1 x24_r1 - 3 x25_r1 + 3 x26_r1 + 1 x27_r1 + 2 y24_r1 - 5 y25_r1 - 4 y26_r1 + 3 y27_r1 + 5 SH6_r1 >= 0
0 x24_r1 + 2 x25_r1 - 1 x26_r1 + 1 x27_r1 + 4 y24_r1 + 3 y25_r1 + 1 y26_r1 + 2 y27_r1 - 4 SH6_r1 >= 0
0 x24_r1 + 1 x25_r1 + 2 x26_r1 + 0 x27_r1 - 1 y24_r1 + 1 y25_r1 + 1 y26_r1 + 2 y27_r1 - 1 SH6_r1 >= 0
3 x24_r1 - 1 x25_r1 - 4 x26_r1 + 0 x27_r1 - 1 y24_r1 - 1 y25_r1 + 2 y26_r1 + 2 y27_r1 + 3 SH6_r1 >= 0
0 x24_r1 + 2 x25_r1 + 2 x26_r1 + 1 x27_r1 + 1 y24_r1 + 0 y25_r1 + 1 y26_r1 - 1 y27_r1 - 1 SH6_r1 >= 0
-1 x24_r1 - 1 x25_r1 - 3 x26_r1 + 0 x27_r1 + 2 y24_r1 + 1 y25_r1 - 3 y26_r1 + 0 y27_r1 + 5 SH6_r1 >= 0
SL6_r1 = 0
-1 x28_r1 - 8 x29_r1 + 7 x30_r1 - 3 x31_r1 - 2 y28_r1 + 4 y29_r1 - 2 y30_r1 - 11 y31_r1 + 16 SH7_r1 >= 0
-3 x28_r1 - 1 x29_r1 - 2 x30_r1 + 3 x31_r1 + 4 y28_r1 - 2 y29_r1 - 6 y30_r1 + 0 y31_r1 + 7 SH7_r1 >= 0
3 x28_r1 + 1 x29_r1 + 1 x30_r1 + 2 x31_r1 + 2 y28_r1 + 3 y29_r1 + 5 y30_r1 + 4 y31_r1 - 8 SH7_r1 >= 0
-1 x28_r1 - 2 x29_r1 - 2 x30_r1 + 1 x31_r1 - 4 y28_r1 - 1 y29_r1 + 5 y30_r1 - 2 y31_r1 + 6 SH7_r1 >= 0
0 x28_r1 + 3 x29_r1 - 2 x30_r1 - 1 x31_r1 - 1 y28_r1 - 1 y29_r1 - 1 y30_r1 - 2 y31_r1 + 5 SH7_r1 >= 0
1 x28_r1 - 3 x29_r1 + 3 x30_r1 + 1 x31_r1 + 2 y28_r1 - 5 y29_r1 - 4 y30_r1 + 3 y31_r1 + 5 SH7_r1 >= 0
0 x28_r1 + 2 x29_r1 - 1 x30_r1 + 1 x31_r1 + 4 y28_r1 + 3 y29_r1 + 1 y30_r1 + 2 y31_r1 - 4 SH7_r1 >= 0
0 x28_r1 + 1 x29_r1 + 2 x30_r1 + 0 x31_r1 - 1 y28_r1 + 1 y29_r1 + 1 y30_r1 + 2 y31_r1 - 1 SH7_r1 >= 0
3 x28_r1 - 1 x29_r1 - 4 x30_r1 + 0 x31_r1 - 1 y28_r1 - 1 y29_r1 + 2 y30_r1 + 2 y31_r1 + 3 SH7_r1 >= 0
0 x28_r1 + 2 x29_r1 + 2 x30_r1 + 1 x31_r1 + 1 y28_r1 + 0 y29_r1 + 1 y30_r1 - 1 y31_r1 - 1 SH7_r1 >= 0
-1 x28_r1 - 1 x29_r1 - 3 x30_r1 + 0 x31_r1 + 2 y28_r1 + 1 y29_r1 - 3 y30_r1 + 0 y31_r1 + 5 SH7_r1 >= 0
SL7_r1 = 0
-1 x32_r1 - 8 x33_r1 + 7 x34_r1 - 3 x35_r1 - 2 y32_r1 + 4 y33_r1 - 2 y34_r1 - 11 y35_r1 + 16 SH8_r1 >= 0
-3 x32_r1 - 1 x33_r1 - 2 x34_r1 + 3 x35_r1 + 4 y32_r1 - 2 y33_r1 - 6 y34_r1 + 0 y35_r1 + 7 SH8_r1 >= 0
3 x32_r1 + 1 x33_r1 + 1 x34_r1 + 2 x35_r1 + 2 y32_r1 + 3 y33_r1 + 5 y34_r1 + 4 y35_r1 - 8 SH8_r1 >= 0
-1 x32_r1 - 2 x33_r1 - 2 x34_r1 + 1 x35_r1 - 4 y32_r1 - 1 y33_r1 + 5 y34_r1 - 2 y35_r1 + 6 SH8_r1 >= 0
0 x32_r1 + 3 x33_r1 - 2 x34_r1 - 1 x35_r1 - 1 y32_r1 - 1 y33_r1 - 1 y34_r1 - 2 y35_r1 + 5 SH8_r1 >= 0
1 x32_r1 - 3 x33_r1 + 3 x34_r1 + 1 x35_r1 + 2 y32_r1 - 5 y33_r1 - 4 y34_r1 + 3 y35_r1 + 5 SH8_r1 >= 0
0 x32_r1 + 2 x33_r1 - 1 x34_r1 + 1 x35_r1 + 4 y32_r1 + 3 y33_r1 + 1 y34_r1 + 2 y35_r1 - 4 SH8_r1 >= 0
0 x32_r1 + 1 x33_r1 + 2 x34_r1 + 0 x35_r1 - 1 y32_r1 + 1 y33_r1 + 1 y34_r1 + 2 y35_r1 - 1 SH8_r1 >= 0
3 x32_r1 - 1 x33_r1 - 4 x34_r1 + 0 x35_r1 - 1 y32_r1 - 1 y33_r1 + 2 y34_r1 + 2 y35_r1 + 3 SH8_r1 >= 0
0 x32_r1 + 2 x33_r1 + 2 x34_r1 + 1 x35_r1 + 1 y32_r1 + 0 y33_r1 + 1 y34_r1 - 1 y35_r1 - 1 SH8_r1 >= 0
-1 x32_r1 - 1 x33_r1 - 3 x34_r1 + 0 x35_r1 + 2 y32_r1 + 1 y33_r1 - 3 y34_r1 + 0 y35_r1 + 5 SH8_r1 >= 0
SL8_r1 = 0
-1 x36_r1 - 8 x37_r1 + 7 x38_r1 - 3 x39_r1 - 2 y36_r1 + 4 y37_r1 - 2 y38_r1 - 11 y39_r1 + 16 SH9_r1 >= 0
-3 x36_r1 - 1 x37_r1 - 2 x38_r1 + 3 x39_r1 + 4 y36_r1 - 2 y37_r1 - 6 y38_r1 + 0 y39_r1 + 7 SH9_r1 >= 0
3 x36_r1 + 1 x37_r1 + 1 x38_r1 + 2 x39_r1 + 2 y36_r1 + 3 y37_r1 + 5 y38_r1 + 4 y39_r1 - 8 SH9_r1 >= 0
-1 x36_r1 - 2 x37_r1 - 2 x38_r1 + 1 x39_r1 - 4 y36_r1 - 1 y37_r1 + 5 y38_r1 - 2 y39_r1 + 6 SH9_r1 >= 0
0 x36_r1 + 3 x37_r1 - 2 x38_r1 - 1 x39_r1 - 1 y36_r1 - 1 y37_r1 - 1 y38_r1 - 2 y39_r1 + 5 SH9_r1 >= 0
1 x36_r1 - 3 x37_r1 + 3 x38_r1 + 1 x39_r1 + 2 y36_r1 - 5 y37_r1 - 4 y38_r1 + 3 y39_r1 + 5 SH9_r1 >= 0
0 x36_r1 + 2 x37_r1 - 1 x38_r1 + 1 x39_r1 + 4 y36_r1 + 3 y37_r1 + 1 y38_r1 + 2 y39_r1 - 4 SH9_r1 >= 0
0 x36_r1 + 1 x37_r1 + 2 x38_r1 + 0 x39_r1 - 1 y36_r1 + 1 y37_r1 + 1 y38_r1 + 2 y39_r1 - 1 SH9_r1 >= 0
3 x36_r1 - 1 x37_r1 - 4 x38_r1 + 0 x39_r1 - 1 y36_r1 - 1 y37_r1 + 2 y38_r1 + 2 y39_r1 + 3 SH9_r1 >= 0
0 x36_r1 + 2 x37_r1 + 2 x38_r1 + 1 x39_r1 + 1 y36_r1 + 0 y37_r1 + 1 y38_r1 - 1 y39_r1 - 1 SH9_r1 >= 0
-1 x36_r1 - 1 x37_r1 - 3 x38_r1 + 0 x39_r1 + 2 y36_r1 + 1 y37_r1 - 3 y38_r1 + 0 y39_r1 + 5 SH9_r1 >= 0
SL9_r1 = 0
-1 x40_r1 - 8 x41_r1 + 7 x42_r1 - 3 x43_r1 - 2 y40_r1 + 4 y41_r1 - 2 y42_r1 - 11 y43_r1 + 16 SH10_r1 >= 0
-3 x40_r1 - 1 x41_r1 - 2 x42_r1 + 3 x43_r1 + 4 y40_r1 - 2 y41_r1 - 6 y42_r1 + 0 y43_r1 + 7 SH10_r1 >= 0
3 x40_r1 + 1 x41_r1 + 1 x42_r1 + 2 x43_r1 + 2 y40_r1 + 3 y41_r1 + 5 y42_r1 + 4 y43_r1 - 8 SH10_r1 >= 0
-1 x40_r1 - 2 x41_r1 - 2 x42_r1 + 1 x43_r1 - 4 y40_r1 - 1 y41_r1 + 5 y42_r1 - 2 y43_r1 + 6 SH10_r1 >= 0
0 x40_r1 + 3 x41_r1 - 2 x42_r1 - 1 x43_r1 - 1 y40_r1 - 1 y41_r1 - 1 y42_r1 - 2 y43_r1 + 5 SH10_r1 >= 0
1 x40_r1 - 3 x41_r1 + 3 x42_r1 + 1 x43_r1 + 2 y40_r1 - 5 y41_r1 - 4 y42_r1 + 3 y43_r1 + 5 SH10_r1 >= 0
0 x40_r1 + 2 x41_r1 - 1 x42_r1 + 1 x43_r1 + 4 y40_r1 + 3 y41_r1 + 1 y42_r1 + 2 y43_r1 - 4 SH10_r1 >= 0
0 x40_r1 + 1 x41_r1 + 2 x42_r1 + 0 x43_r1 - 1 y40_r1 + 1 y41_r1 + 1 y42_r1 + 2 y43_r1 - 1 SH10_r1 >= 0
3 x40_r1 - 1 x41_r1 - 4 x42_r1 + 0 x43_r1 - 1 y40_r1 - 1 y41_r1 + 2 y42_r1 + 2 y43_r1 + 3 SH10_r1 >= 0
0 x40_r1 + 2 x41_r1 + 2 x42_r1 + 1 x43_r1 + 1 y40_r1 + 0 y41_r1 + 1 y42_r1 - 1 y43_r1 - 1 SH10_r1 >= 0
-1 x40_r1 - 1 x41_r1 - 3 x42_r1 + 0 x43_r1 + 2 y40_r1 + 1 y41_r1 - 3 y42_r1 + 0 y43_r1 + 5 SH10_r1 >= 0
SL10_r1 = 0
-1 x44_r1 - 8 x45_r1 + 7 x46_r1 - 3 x47_r1 - 2 y44_r1 + 4 y45_r1 - 2 y46_r1 - 11 y47_r1 + 16 SH11_r1 >= 0
-3 x44_r1 - 1 x45_r1 - 2 x46_r1 + 3 x47_r1 + 4 y44_r1 - 2 y45_r1 - 6 y46_r1 + 0 y47_r1 + 7 SH11_r1 >= 0
3 x44_r1 + 1 x45_r1 + 1 x46_r1 + 2 x47_r1 + 2 y44_r1 + 3 y45_r1 + 5 y46_r1 + 4 y47_r1 - 8 SH11_r1 >= 0
-1 x44_r1 - 2 x45_r1 - 2 x46_r1 + 1 x47_r1 - 4 y44_r1 - 1 y45_r1 + 5 y46_r1 - 2 y47_r1 + 6 SH11_r1 >= 0
0 x44_r1 + 3 x45_r1 - 2 x46_r1 - 1 x47_r1 - 1 y44_r1 - 1 y45_r1 - 1 y46_r1 - 2 y47_r1 + 5 SH11_r1 >= 0
1 x44_r1 - 3 x45_r1 + 3 x46_r1 + 1 x47_r1 + 2 y44_r1 - 5 y45_r1 - 4 y46_r1 + 3 y47_r1 + 5 SH11_r1 >= 0
0 x44_r1 + 2 x45_r1 - 1 x46_r1 + 1 x47_r1 + 4 y44_r1 + 3 y45_r1 + 1 y46_r1 + 2 y47_r1 - 4 SH11_r1 >= 0
0 x44_r1 + 1 x45_r1 + 2 x46_r1 + 0 x47_r1 - 1 y44_r1 + 1 y45_r1 + 1 y46_r1 + 2 y47_r1 - 1 SH11_r1 >= 0
3 x44_r1 - 1 x45_r1 - 4 x46_r1 + 0 x47_r1 - 1 y44_r1 - 1 y45_r1 + 2 y46_r1 + 2 y47_r1 + 3 SH11_r1 >= 0
0 x44_r1 + 2 x45_r1 + 2 x46_r1 + 1 x47_r1 + 1 y44_r1 + 0 y45_r1 + 1 y46_r1 - 1 y47_r1 - 1 SH11_r1 >= 0
-1 x44_r1 - 1 x45_r1 - 3 x46_r1 + 0 x47_r1 + 2 y44_r1 + 1 y45_r1 - 3 y46_r1 + 0 y47_r1 + 5 SH11_r1 >= 0
SL11_r1 = 0
-1 x48_r1 - 8 x49_r1 + 7 x50_r1 - 3 x51_r1 - 2 y48_r1 + 4 y49_r1 - 2 y50_r1 - 11 y51_r1 + 16 SH12_r1 >= 0
-3 x48_r1 - 1 x49_r1 - 2 x50_r1 + 3 x51_r1 + 4 y48_r1 - 2 y49_r1 - 6 y50_r1 + 0 y51_r1 + 7 SH12_r1 >= 0
3 x48_r1 + 1 x49_r1 + 1 x50_r1 + 2 x51_r1 + 2 y48_r1 + 3 y49_r1 + 5 y50_r1 + 4 y51_r1 - 8 SH12_r1 >= 0
-1 x48_r1 - 2 x49_r1 - 2 x50_r1 + 1 x51_r1 - 4 y48_r1 - 1 y49_r1 + 5 y50_r1 - 2 y51_r1 + 6 SH12_r1 >= 0
0 x48_r1 + 3 x49_r1 - 2 x50_r1 - 1 x51_r1 - 1 y48_r1 - 1 y49_r1 - 1 y50_r1 - 2 y51_r1 + 5 SH12_r1 >= 0
1 x48_r1 - 3 x49_r1 + 3 x50_r1 + 1 x51_r1 + 2 y48_r1 - 5 y49_r1 - 4 y50_r1 + 3 y51_r1 + 5 SH12_r1 >= 0
0 x48_r1 + 2 x49_r1 - 1 x50_r1 + 1 x51_r1 + 4 y48_r1 + 3 y49_r1 + 1 y50_r1 + 2 y51_r1 - 4 SH12_r1 >= 0
0 x48_r1 + 1 x49_r1 + 2 x50_r1 + 0 x51_r1 - 1 y48_r1 + 1 y49_r1 + 1 y50_r1 + 2 y51_r1 - 1 SH12_r1 >= 0
3 x48_r1 - 1 x49_r1 - 4 x50_r1 + 0 x51_r1 - 1 y48_r1 - 1 y49_r1 + 2 y50_r1 + 2 y51_r1 + 3 SH12_r1 >= 0
0 x48_r1 + 2 x49_r1 + 2 x50_r1 + 1 x51_r1 + 1 y48_r1 + 0 y49_r1 + 1 y50_r1 - 1 y51_r1 - 1 SH12_r1 >= 0
-1 x48_r1 - 1 x49_r1 - 3 x50_r1 + 0 x51_r1 + 2 y48_r1 + 1 y49_r1 - 3 y50_r1 + 0 y51_r1 + 5 SH12_r1 >= 0
SL12_r1 = 0
-1 x52_r1 - 8 x53_r1 + 7 x54_r1 - 3 x55_r1 - 2 y52_r1 + 4 y53_r1 - 2 y54_r1 - 11 y55_r1 + 16 SH13_r1 >= 0
-3 x52_r1 - 1 x53_r1 - 2 x54_r1 + 3 x55_r1 + 4 y52_r1 - 2 y53_r1 - 6 y54_r1 + 0 y55_r1 + 7 SH13_r1 >= 0
3 x52_r1 + 1 x53_r1 + 1 x54_r1 + 2 x55_r1 + 2 y52_r1 + 3 y53_r1 + 5 y54_r1 + 4 y55_r1 - 8 SH13_r1 >= 0
-1 x52_r1 - 2 x53_r1 - 2 x54_r1 + 1 x55_r1 - 4 y52_r1 - 1 y53_r1 + 5 y54_r1 - 2 y55_r1 + 6 SH13_r1 >= 0
0 x52_r1 + 3 x53_r1 - 2 x54_r1 - 1 x55_r1 - 1 y52_r1 - 1 y53_r1 - 1 y54_r1 - 2 y55_r1 + 5 SH13_r1 >= 0
1 x52_r1 - 3 x53_r1 + 3 x54_r1 + 1 x55_r1 + 2 y52_r1 - 5 y53_r1 - 4 y54_r1 + 3 y55_r1 + 5 SH13_r1 >= 0
0 x52_r1 + 2 x53_r1 - 1 x54_r1 + 1 x55_r1 + 4 y52_r1 + 3 y53_r1 + 1 y54_r1 + 2 y55_r1 - 4 SH13_r1 >= 0
0 x52_r1 + 1 x53_r1 + 2 x54_r1 + 0 x55_r1 - 1 y52_r1 + 1 y53_r1 + 1 y54_r1 + 2 y55_r1 - 1 SH13_r1 >= 0
3 x52_r1 - 1 x53_r1 - 4 x54_r1 + 0 x55_r1 - 1 y52_r1 - 1 y53_r1 + 2 y54_r1 + 2 y55_r1 + 3 SH13_r1 >= 0
0 x52_r1 + 2 x53_r1 + 2 x54_r1 + 1 x55_r1 + 1 y52_r1 + 0 y53_r1 + 1 y54_r1 - 1 y55_r1 - 1 SH13_r1 >= 0
-1 x52_r1 - 1 x53_r1 - 3 x54_r1 + 0 x55_r1 + 2 y52_r1 + 1 y53_r1 - 3 y54_r1 + 0 y55_r1 + 5 SH13_r1 >= 0
SL13_r1 = 0
-1 x56_r1 - 8 x57_r1 + 7 x58_r1 - 3 x59_r1 - 2 y56_r1 + 4 y57_r1 - 2 y58_r1 - 11 y59_r1 + 16 SH14_r1 >= 0
-3 x56_r1 - 1 x57_r1 - 2 x58_r1 + 3 x59_r1 + 4 y56_r1 - 2 y57_r1 - 6 y58_r1 + 0 y59_r1 + 7 SH14_r1 >= 0
3 x56_r1 + 1 x57_r1 + 1 x58_r1 + 2 x59_r1 + 2 y56_r1 + 3 y57_r1 + 5 y58_r1 + 4 y59_r1 - 8 SH14_r1 >= 0
-1 x56_r1 - 2 x57_r1 - 2 x58_r1 + 1 x59_r1 - 4 y56_r1 - 1 y57_r1 + 5 y58_r1 - 2 y59_r1 + 6 SH14_r1 >= 0
0 x56_r1 + 3 x57_r1 - 2 x58_r1 - 1 x59_r1 - 1 y56_r1 - 1 y57_r1 - 1 y58_r1 - 2 y59_r1 + 5 SH14_r1 >= 0
1 x56_r1 - 3 x57_r1 + 3 x58_r1 + 1 x59_r1 + 2 y56_r1 - 5 y57_r1 - 4 y58_r1 + 3 y59_r1 + 5 SH14_r1 >= 0
0 x56_r1 + 2 x57_r1 - 1 x58_r1 + 1 x59_r1 + 4 y56_r1 + 3 y57_r1 + 1 y58_r1 + 2 y59_r1 - 4 SH14_r1 >= 0
0 x56_r1 + 1 x57_r1 + 2 x58_r1 + 0 x59_r1 - 1 y56_r1 + 1 y57_r1 + 1 y58_r1 + 2 y59_r1 - 1 SH14_r1 >= 0
3 x56_r1 - 1 x57_r1 - 4 x58_r1 + 0 x59_r1 - 1 y56_r1 - 1 y57_r1 + 2 y58_r1 + 2 y59_r1 + 3 SH14_r1 >= 0
0 x56_r1 + 2 x57_r1 + 2 x58_r1 + 1 x59_r1 + 1 y56_r1 + 0 y57_r1 + 1 y58_r1 - 1 y59_r1 - 1 SH14_r1 >= 0
-1 x56_r1 - 1 x57_r1 - 3 x58_r1 + 0 x59_r1 + 2 y56_r1 + 1 y57_r1 - 3 y58_r1 + 0 y59_r1 + 5 SH14_r1 >= 0
SL14_r1 = 0
-1 x60_r1 - 8 x61_r1 + 7 x62_r1 - 3 x63_r1 - 2 y60_r1 + 4 y61_r1 - 2 y62_r1 - 11 y63_r1 + 16 SH15_r1 >= 0
-3 x60_r1 - 1 x61_r1 - 2 x62_r1 + 3 x63_r1 + 4 y60_r1 - 2 y61_r1 - 6 y62_r1 + 0 y63_r1 + 7 SH15_r1 >= 0
3 x60_r1 + 1 x61_r1 + 1 x62_r1 + 2 x63_r1 + 2 y60_r1 + 3 y61_r1 + 5 y62_r1 + 4 y63_r1 - 8 SH15_r1 >= 0
-1 x60_r1 - 2 x61_r1 - 2 x62_r1 + 1 x63_r1 - 4 y60_r1 - 1 y61_r1 + 5 y62_r1 - 2 y63_r1 + 6 SH15_r1 >= 0
0 x60_r1 + 3 x61_r1 - 2 x62_r1 - 1 x63_r1 - 1 y60_r1 - 1 y61_r1 - 1 y62_r1 - 2 y63_r1 + 5 SH15_r1 >= 0
1 x60_r1 - 3 x61_r1 + 3 x62_r1 + 1 x63_r1 + 2 y60_r1 - 5 y61_r1 - 4 y62_r1 + 3 y63_r1 + 5 SH15_r1 >= 0
0 x60_r1 + 2 x61_r1 - 1 x62_r1 + 1 x63_r1 + 4 y60_r1 + 3 y61_r1 + 1 y62_r1 + 2 y63_r1 - 4 SH15_r1 >= 0
0 x60_r1 + 1 x61_r1 + 2 x62_r1 + 0 x63_r1 - 1 y60_r1 + 1 y61_r1 + 1 y62_r1 + 2 y63_r1 - 1 SH15_r1 >= 0
3 x60_r1 - 1 x61_r1 - 4 x62_r1 + 0 x63_r1 - 1 y60_r1 - 1 y61_r1 + 2 y62_r1 + 2 y63_r1 + 3 SH15_r1 >= 0
0 x60_r1 + 2 x61_r1 + 2 x62_r1 + 1 x63_r1 + 1 y60_r1 + 0 y61_r1 + 1 y62_r1 - 1 y63_r1 - 1 SH15_r1 >= 0
-1 x60_r1 - 1 x61_r1 - 3 x62_r1 + 0 x63_r1 + 2 y60_r1 + 1 y61_r1 - 3 y62_r1 + 0 y63_r1 + 5 SH15_r1 >= 0
SL15_r1 = 0


Generals
xobj


Binary
y31_r1
x52_r1
SL0_r1
x57_r1
x58_r1
y41_r1
y23_r1
SH12_r1
y52_r1
x20_r1
x23_r1
y63_r1
x10_r1
SL3_r1
SH1_r1
y46_r1
x36_r1
x60_r1
x39_r1
SL11_r1
y47_r1
y5_r1
x13_r1
y50_r1
x4_r1
y27_r1
SL9_r1
y45_r1
y13_r1
y22_r1
SH11_r1
x51_r1
SL13_r1
x38_r1
y40_r1
x62_r1
x31_r1
x35_r1
y36_r1
y38_r1
y61_r1
y21_r1
x44_r1
x40_r1
x26_r1
x21_r1
SH13_r1
y18_r1
y33_r1
y30_r1
x12_r1
x7_r1
SL8_r1
SL14_r1
y44_r1
SH4_r1
y35_r1
SL7_r1
x47_r1
x29_r1
y51_r1
x48_r1
y48_r1
y54_r1
y2_r1
y32_r1
y57_r1
y28_r1
SH3_r1
y43_r1
x59_r1
x16_r1
x63_r1
y25_r1
y42_r1
x6_r1
y0_r1
y10_r1
x53_r1
SH9_r1
x33_r1
y16_r1
y49_r1
x17_r1
x32_r1
x11_r1
x2_r1
x41_r1
y24_r1
x50_r1
SL6_r1
SL1_r1
x0_r1
SH10_r1
y55_r1
y56_r1
SH15_r1
x28_r1
y8_r1
x9_r1
SL4_r1
x24_r1
y9_r1
x15_r1
x3_r1
x43_r1
x56_r1
SH5_r1
y53_r1
x19_r1
SL5_r1
x25_r1
x1_r1
SH2_r1
y7_r1
y14_r1
y17_r1
y58_r1
x8_r1
SH0_r1
x61_r1
SL15_r1
y37_r1
x45_r1
y34_r1
y15_r1
SH6_r1
x27_r1
y6_r1
x42_r1
SL10_r1
y39_r1
y1_r1
y29_r1
x54_r1
SL12_r1
y11_r1
y3_r1
SH7_r1
x34_r1
x5_r1
y59_r1
x18_r1
y19_r1
SH8_r1
x14_r1
SL2_r1
y4_r1
y26_r1
y62_r1
x22_r1
x46_r1
x49_r1
y60_r1
x30_r1
x55_r1
SH14_r1
x37_r1
y20_r1
y12_r1
